c ---- [ banner ] ------------------------------------------------------------
c
c Kissat SAT Solver
c 
c Copyright (c) 2021-2023 Armin Biere University of Freiburg
c Copyright (c) 2019-2021 Armin Biere Johannes Kepler University Linz
c 
c Version 3.1.1 unknown
c gcc (Ubuntu 9.4.0-1ubuntu1~20.04.2) 9.4.0 -W -Wall -O3 -DNDEBUG
c Mon Feb 26 18:18:52 CET 2024 Linux OptiPlex-7080 5.15.0-88-generic x86_64
c
c ---- [ parsing ] -----------------------------------------------------------
c
c opened and reading DIMACS file:
c
c   /home/oliveras/SAT-comp-2023//3663000b31a5c80922afc6e48322accb-6s165.cnf
c
c parsed 'p cnf 3098 8995' header
c closing input after reading 125111 bytes (122 KB)
c finished parsing after 0.01 seconds
c
c ---- [ options ] -----------------------------------------------------------
c
c --seed=1                         (different from default '0')
c
c ---- [ solving ] -----------------------------------------------------------
c
c  seconds switched conflicts  irredundant variables
c         MB reductions redundant     trail    remaining
c          level restarts    binary      glue
c
c *  0.01  2 0 0 0  0   0   0 5996 2998 0% 0 3097 100%
c {  0.01  3 0 0 0  0   0   0 5996 2998 0% 0 3097 100%
c i  0.01  3 99 0 0 17 141 120 6015 2998 81% 2 3093 100%
c i  0.03  3 79 0 0 93 270 210 6053 2998 65% 3 3090 100%
c i  0.03  3 79 0 0 94 273 210 6055 2998 65% 3 3087 100%
c i  0.03  3 79 0 0 95 276 210 6057 2998 66% 3 3084 100%
c i  0.03  3 80 0 0 96 279 210 6059 2998 66% 3 3081 99%
c i  0.03  3 80 0 0 96 282 210 6061 2998 66% 3 3078 99%
c i  0.03  3 80 0 0 96 285 210 6063 2998 67% 3 3075 99%
c i  0.03  3 80 0 0 96 288 210 6065 2998 67% 3 3072 99%
c i  0.03  3 80 0 0 96 291 210 6067 2998 67% 3 3069 99%
c i  0.03  3 80 0 0 96 294 210 6069 2998 67% 3 3066 99%
c i  0.03  3 81 0 0 96 297 210 6071 2998 68% 3 3063 99%
c i  0.03  3 81 0 0 96 300 210 6073 2998 68% 3 3049 98%
c i  0.03  3 81 0 0 96 302 210 6074 2998 68% 3 3046 98%
c i  0.03  3 81 0 0 96 304 210 6075 2998 68% 3 3043 98%
c i  0.03  3 81 0 0 96 306 210 6076 2998 68% 3 3040 98%
c i  0.03  3 80 0 0 100 322 223 6078 2998 69% 3 3033 98%
c i  0.05  3 66 0 0 136 536 352 6162 2998 64% 3 2998 97%
c -  0.09  3 54 0 1 306 1001 559 5838 2998 58% 5 2998 97%
c
c  seconds  switched conflicts    irredundant variables
c         MB reductions   redundant       trail    remaining
c          level restarts       binary       glue
c
c }  0.09  3 54 1 1 306 1001 559 5838 2998 58% 5 2998 97%
c [  0.09  3 0 1 1 306 1001 559 5838 2998 0% 0 2998 97%
c B  0.09  3 0 1 1 306 1001 559 5838 2998 0% 0 2998 97%
c b  0.15  3 83 1 1 306 1564 1120 5945 2826 75% 11 2990 96%
c u  0.15  3 83 1 1 306 1564 1049 6008 2826 75% 11 2987 96%
c v  0.17  3 83 1 1 306 1564 1043 6013 2826 75% 11 2984 96%
c w  0.17  3 83 1 1 306 1564 1178 6028 2671 75% 11 2984 96%
c =  0.18  3 83 1 1 306 1564 1178 6206 2665 75% 11 2890 93%
c d  0.18  3 83 1 1 306 1564 1143 5861 2665 75% 11 2871 93%
c t  0.19  3 83 1 1 306 1564 1143 5739 2665 75% 11 2858 92%
c i  0.19  3 83 1 1 306 1564 1143 5739 2665 75% 11 2858 92%
c -  0.21  3 59 1 2 306 2002 955 5623 2665 78% 13 2858 92%
c W  0.22  3 59 1 2 306 2002 955 5623 2665 78% 13 2858 92%
c ]  0.25  3 52 2 2 307 2435 1384 5624 2665 78% 14 2858 92%
c {  0.25  3 54 2 2 307 2435 1384 5624 2665 58% 5 2858 92%
c i  0.25  3 54 2 2 308 2438 1386 5624 2665 58% 5 2857 92%
c i  0.25  3 54 2 2 309 2441 1387 5625 2665 57% 5 2855 92%
c i  0.28  3 45 2 2 421 2963 1869 5655 2665 51% 5 2853 92%
c d  0.29  3 43 2 2 463 3104 2002 5688 2633 51% 5 2852 92%
c d  0.30  3 43 2 2 463 3104 2002 5654 2633 51% 5 2835 91%
c
c  seconds  switched conflicts     irredundant variables
c         MB reductions   redundant        trail    remaining
c          level restarts        binary       glue
c
c u  0.30  3 43 2 2 463 3104 1989 5667 2633 51% 5 2835 91%
c v  0.31  3 43 2 2 463 3104 1989 5667 2633 51% 5 2835 91%
c w  0.32  3 43 2 2 463 3104 2063 5667 2559 51% 5 2835 91%
c =  0.35  4 43 2 2 463 3104 2063 6097 2490 51% 5 2572 83%
c d  0.35  4 43 2 2 463 3104 2025 5703 2475 51% 5 2572 83%
c d  0.35  4 43 2 2 463 3104 2025 5673 2475 51% 5 2557 83%
c t  0.35  4 43 2 2 463 3104 2025 5345 2475 51% 5 2557 83%
c -  0.36  4 40 2 3 479 3418 1659 5118 2475 48% 5 2557 83%
c }  0.36  4 40 3 3 479 3436 1677 5118 2475 47% 5 2557 83%
c [  0.36  4 52 3 3 479 3436 1677 5118 2475 78% 14 2557 83%
c I  0.42  4 43 3 3 479 4261 2488 5123 2475 77% 14 2557 83%
c ]  0.44  4 44 4 3 480 4790 3002 5127 2475 76% 14 2557 83%
c {  0.44  4 40 4 3 480 4790 3002 5127 2475 47% 5 2557 83%
c i  0.45  4 40 4 3 516 4912 3120 5130 2475 47% 5 2536 82%
c -  0.47  4 39 4 4 563 5151 2160 5079 2475 47% 5 2536 82%
c i  0.55  4 38 4 4 931 6246 3221 5107 2475 48% 6 2535 82%
c d  0.55  4 38 4 4 932 6257 3220 5120 2451 48% 6 2534 82%
c d  0.55  4 38 4 4 932 6257 3220 5104 2451 48% 6 2526 82%
c b  0.55  4 38 4 4 932 6257 3220 5104 2451 48% 6 2525 81%
c u  0.56  4 38 4 4 932 6257 3197 5127 2451 48% 6 2525 81%
c
c  seconds  switched conflicts     irredundant variables
c         MB reductions   redundant        trail    remaining
c          level restarts        binary       glue
c
c v  0.56  4 38 4 4 932 6257 3194 5129 2451 48% 6 2525 81%
c w  0.57  4 38 4 4 932 6257 3432 5132 2210 48% 6 2525 81%
c =  0.59  4 38 4 4 932 6257 3432 5540 2210 48% 6 2321 75%
c d  0.59  4 38 4 4 932 6257 3365 5123 2210 48% 6 2320 75%
c t  0.59  4 38 4 4 932 6257 3365 4785 2210 48% 6 2320 75%
c b  0.59  4 38 4 4 932 6257 3365 4785 2210 48% 6 2319 75%
c }  0.63  4 37 5 4 1045 7142 4202 4803 2210 46% 6 2319 75%
c [  0.63  4 44 5 4 1045 7142 4202 4803 2210 76% 14 2319 75%
c -  0.63  4 44 5 5 1045 7152 3189 4790 2210 76% 14 2319 75%
c s  0.64  4 38 5 5 1045 7819 3820 4802 2074 65% 12 2319 75%
c e  0.65  4 38 5 5 1045 7819 3820 478 3002 65% 12 575 19%
c s  0.66  4 38 5 5 1045 7819 3820 481 2613 65% 12 575 19%
c e  0.66  4 38 5 5 1045 7819 3820 451 2638 65% 12 557 18%
c ^  0.66  4 38 5 5 1045 7819 3820 451 2638 65% 12 557 18%
c B  0.66  4 39 5 5 1045 8032 478 453 2638 66% 12 557 18%
c -  0.69  4 37 5 6 1047 9388 875 454 2638 69% 14 557 18%
c u  0.72  4 35 5 6 1047 11034 2492 457 2638 68% 15 557 18%
c v  0.73  4 35 5 6 1047 11034 2490 459 2638 68% 15 557 18%
c w  0.73  4 35 5 6 1047 11034 2615 471 2501 68% 15 557 18%
c =  0.75  4 35 5 6 1047 11034 2615 633 2432 68% 15 466 15%
c
c  seconds  switched   conflicts    irredundant  variables
c         MB reductions     redundant       trail    remaining
c          level  restarts        binary        glue
c
c d  0.75  4 35 5 6 1047 11034 2350 461 2421 68% 15 466 15%
c t  0.75  4 35 5 6 1047 11034 2350 432 2421 68% 15 466 15%
c -  0.76  4 34 5 7 1048 11838 1468 425 2421 67% 14 466 15%
c W  0.78  4 31 5 7 1049 13562 2916 439 2419 61% 13 466 15%
c s  0.78  4 30 5 7 1050 13913 3198 441 2054 59% 13 466 15%
c e  0.78  4 30 5 7 1050 13913 3198 369 2043 59% 13 409 13%
c s  0.79  4 30 5 7 1050 13913 3198 370 1985 59% 13 409 13%
c ^  0.79  4 30 5 7 1050 13913 3198 370 1985 59% 13 409 13%
c -  0.79  3 29 5 8 1050 14484 1516 373 1985 57% 12 409 13%
c i  0.80  3 27 5 8 1050 15759 2466 384 1985 53% 12 408 13%
c i  0.80  3 27 5 8 1050 16075 2723 398 1985 52% 11 407 13%
c i  0.80  3 26 5 8 1050 16171 2787 406 1985 51% 11 406 13%
c i  0.80  3 26 5 8 1050 16234 2832 412 1985 51% 11 405 13%
c i  0.80  3 26 5 8 1050 16265 2852 417 1985 51% 11 403 13%
c i  0.80  3 26 5 8 1050 16267 2853 417 1985 51% 11 402 13%
c i  0.80  3 26 5 8 1050 16281 2862 420 1985 51% 11 401 13%
c i  0.80  3 26 5 8 1050 16282 2862 420 1985 51% 11 390 13%
c i  0.80  3 26 5 8 1050 16284 2862 421 1985 51% 11 389 13%
c i  0.80  3 26 5 8 1050 16286 2862 422 1985 51% 11 384 12%
c i  0.80  3 26 5 8 1050 16290 2863 424 1985 51% 11 379 12%
c
c  seconds  switched   conflicts    irredundant  variables
c         MB reductions     redundant       trail    remaining
c          level  restarts        binary        glue
c
c i  0.80  3 26 5 8 1050 16292 2863 425 1985 51% 11 377 12%
c ]  0.80  3 26 5 8 1050 16294 2863 425 1985 51% 11 373 12%
c 0  0.80  3 37 5 8 1050 16294 2863 425 1985 46% 6 373 12%
c
c ---- [ result ] ------------------------------------------------------------
c
s UNSATISFIABLE
c
c ---- [ profiling ] ---------------------------------------------------------
c
c           0.60   74.94 %  search
c           0.32   39.79 %  stable
c           0.28   35.13 %  focused
c           0.20   24.34 %  simplify
c           0.17   20.86 %  probe
c           0.07    9.31 %  sweep
c           0.07    8.96 %  vivify
c           0.02    2.72 %  eliminate
c           0.01    1.53 %  substitute
c           0.01    0.80 %  reduce
c           0.01    0.76 %  walking
c           0.01    0.67 %  transitive
c           0.01    0.65 %  parse
c           0.00    0.38 %  backbone
c           0.00    0.30 %  subsume
c           0.00    0.00 %  warmup
c =============================================
c           0.80  100.00 %  total
c
c ---- [ statistics ] --------------------------------------------------------
c
c chronological:                            2                0 %  conflicts
c conflicts:                            16294            20286.13 per second
c decisions:                            73822                4.53 per conflict
c eliminated:                            1818               59 %  variables
c jumped_reasons:                      999006               22 %  propagations
c propagations:                       4562009          5679728    per second
c queue_decisions:                      55561               75 %  decision
c random_decisions:                      1875                3 %  decision
c random_sequences:                         7             2328    interval
c reductions:                               8             2037    interval
c rephased:                                 5             3259    interval
c restarts:                              1050               15.52 interval
c score_decisions:                      16386               22 %  decision
c strengthened:                            55                0 %  checks
c substituted:                            626               20 %  variables
c subsumed:                               944                2 %  checks
c switched:                                 5             3259    interval
c vivified:                              1081                7 %  checks
c vivify_checks:                        14453             3613    per vivify
c vivify_units:                             2                0 %  variables
c walk_improved:                            2              100 %  walks
c walks:                                    2             8147    interval
c
c ---- [ resources ] ---------------------------------------------------------
c
c maximum-resident-set-size:          4546560 bytes          4 MB
c process-time:                             1s               0.80 seconds
c
c ---- [ shutting down ] -----------------------------------------------------
c
c exit 20
